32      4       
15      12      13      20      
0       0       0       0       0       4       2       13      30      31      
10      0       8       0       5       2       3       29      
1       6       0       0       4       1       4       
8       6       0       8       0       2       5       18      
3       0       0       7       6       1       6       
3       0       5       6       0       1       7       
6       0       12      0       15      3       8       17      26      
5       1       0       0       4       1       9       
3       0       6       7       0       3       10      24      25      
4       0       4       5       0       1       11      
8       0       4       0       19      4       12      21      22      23      
5       0       0       12      2       2       14      20      
4       1       0       0       4       2       16      28      
6       0       1       0       17      1       15      
5       15      12      0       0       1       16      
6       0       6       13      0       1       19      
8       0       6       0       19      1       19      
2       5       1       0       0       1       27      
9       1       0       0       20      1       32      
10      10      0       1       0       1       32      
3       11      0       0       9       1       32      
3       15      8       0       0       1       32      
10      9       0       2       0       1       32      
3       14      0       4       0       1       32      
6       0       0       13      7       1       32      
9       0       4       0       8       1       32      
10      3       0       1       0       1       32      
10      0       1       0       11      1       32      
6       0       12      9       0       1       32      
7       13      0       9       0       1       32      
1       3       0       1       0       1       32      
0       0       0       0       0       0       
